unsat
(:max-memory              26.98
 :memory                  18.79
 :num-allocs              1367644
 :rlimit-count            477251
 :sat-backjumps           20698
 :sat-conflicts           20699
 :sat-decisions           26815
 :sat-del-clause          564
 :sat-elim-bool-vars-res  90
 :sat-elim-clauses        164
 :sat-elim-literals       7141
 :sat-minimized-lits      144559
 :sat-mk-clause-2ary      677
 :sat-mk-clause-nary      20874
 :sat-mk-var              190
 :sat-propagations-2ary   299838
 :sat-propagations-nary   124080
 :sat-restarts            351
 :sat-subs-resolution     7
 :sat-subs-resolution-dyn 12628
 :sat-subsumed            15
 :sat-units               66
 :solve-eqs-elim-vars     9
 :solve-eqs-steps         9
 :time                    3.02
 :total-time              3.04)
